c nIsolatedPIs 0
c maxPI 32
p cnf 281 748
c gate 33 5 -21 0
5 -33 0
-21 -33 0
-5 21 33 0
c gate 34 -5 21 0
-5 -34 0
21 -34 0
5 -21 34 0
c gate 35 -33 -34 0
-33 -35 0
-34 -35 0
33 34 35 0
c gate 36 4 20 0
4 -36 0
20 -36 0
-4 -20 36 0
c gate 37 -4 -20 0
-4 -37 0
-20 -37 0
4 20 37 0
c gate 38 3 19 0
3 -38 0
19 -38 0
-3 -19 38 0
c gate 39 1 17 0
1 -39 0
17 -39 0
-1 -17 39 0
c gate 40 2 18 0
2 -40 0
18 -40 0
-2 -18 40 0
c gate 41 -39 -40 0
-39 -41 0
-40 -41 0
39 40 41 0
c gate 42 -3 19 0
-3 -42 0
19 -42 0
3 -19 42 0
c gate 43 3 -19 0
3 -43 0
-19 -43 0
-3 19 43 0
c gate 44 -42 -43 0
-42 -44 0
-43 -44 0
42 43 44 0
c gate 45 -41 -44 0
-41 -45 0
-44 -45 0
41 44 45 0
c gate 46 -38 -45 0
-38 -46 0
-45 -46 0
38 45 46 0
c gate 47 -37 -46 0
-37 -47 0
-46 -47 0
37 46 47 0
c gate 48 -36 -47 0
-36 -48 0
-47 -48 0
36 47 48 0
c gate 49 -2 -18 0
-2 -49 0
-18 -49 0
2 18 49 0
c gate 50 -38 49 0
-38 -50 0
49 -50 0
38 -49 50 0
c gate 51 -36 50 0
-36 -51 0
50 -51 0
36 -50 51 0
c gate 52 -48 -51 0
-48 -52 0
-51 -52 0
48 51 52 0
c gate 53 -35 52 0
-35 -53 0
52 -53 0
35 -52 53 0
c gate 54 35 -52 0
35 -54 0
-52 -54 0
-35 52 54 0
c gate 55 -53 -54 0
-53 -55 0
-54 -55 0
53 54 55 0
c gate 56 5 21 0
5 -56 0
21 -56 0
-5 -21 56 0
c gate 57 -48 56 0
-48 -57 0
56 -57 0
48 -56 57 0
c gate 58 48 -56 0
48 -58 0
-56 -58 0
-48 56 58 0
c gate 59 -57 -58 0
-57 -59 0
-58 -59 0
57 58 59 0
c gate 60 55 59 0
55 -60 0
59 -60 0
-55 -59 60 0
c gate 61 -55 -59 0
-55 -61 0
-59 -61 0
55 59 61 0
c gate 62 -60 -61 0
-60 -62 0
-61 -62 0
60 61 62 0
c gate 63 39 49 0
39 -63 0
49 -63 0
-39 -49 63 0
c gate 64 44 63 0
44 -64 0
63 -64 0
-44 -63 64 0
c gate 65 -36 -37 0
-36 -65 0
-37 -65 0
36 37 65 0
c gate 66 50 -65 0
50 -66 0
-65 -66 0
-50 65 66 0
c gate 67 -46 66 0
-46 -67 0
66 -67 0
46 -66 67 0
c gate 68 -64 -67 0
-64 -68 0
-67 -68 0
64 67 68 0
c gate 69 12 -28 0
12 -69 0
-28 -69 0
-12 28 69 0
c gate 70 11 -27 0
11 -70 0
-27 -70 0
-11 27 70 0
c gate 71 -69 -70 0
-69 -71 0
-70 -71 0
69 70 71 0
c gate 72 -10 26 0
-10 -72 0
26 -72 0
10 -26 72 0
c gate 73 -9 25 0
-9 -73 0
25 -73 0
9 -25 73 0
c gate 74 7 -23 0
7 -74 0
-23 -74 0
-7 23 74 0
c gate 75 6 -22 0
6 -75 0
-22 -75 0
-6 22 75 0
c gate 76 -2 18 0
-2 -76 0
18 -76 0
2 -18 76 0
c gate 77 -1 17 0
-1 -77 0
17 -77 0
1 -17 77 0
c gate 78 -76 -77 0
-76 -78 0
-77 -78 0
76 77 78 0
c gate 79 2 -18 0
2 -79 0
-18 -79 0
-2 18 79 0
c gate 80 -43 -79 0
-43 -80 0
-79 -80 0
43 79 80 0
c gate 81 -78 80 0
-78 -81 0
80 -81 0
78 -80 81 0
c gate 82 -42 -81 0
-42 -82 0
-81 -82 0
42 81 82 0
c gate 83 4 -20 0
4 -83 0
-20 -83 0
-4 20 83 0
c gate 84 -82 -83 0
-82 -84 0
-83 -84 0
82 83 84 0
c gate 85 -4 20 0
-4 -85 0
20 -85 0
4 -20 85 0
c gate 86 -84 -85 0
-84 -86 0
-85 -86 0
84 85 86 0
c gate 87 -33 -86 0
-33 -87 0
-86 -87 0
33 86 87 0
c gate 88 -6 -22 0
-6 -88 0
-22 -88 0
6 22 88 0
c gate 89 6 22 0
6 -89 0
22 -89 0
-6 -22 89 0
c gate 90 -88 -89 0
-88 -90 0
-89 -90 0
88 89 90 0
c gate 91 -34 -90 0
-34 -91 0
-90 -91 0
34 90 91 0
c gate 92 -87 91 0
-87 -92 0
91 -92 0
87 -91 92 0
c gate 93 -75 -92 0
-75 -93 0
-92 -93 0
75 92 93 0
c gate 94 -7 -23 0
-7 -94 0
-23 -94 0
7 23 94 0
c gate 95 7 23 0
7 -95 0
23 -95 0
-7 -23 95 0
c gate 96 -94 -95 0
-94 -96 0
-95 -96 0
94 95 96 0
c gate 97 -93 -96 0
-93 -97 0
-96 -97 0
93 96 97 0
c gate 98 -74 -97 0
-74 -98 0
-97 -98 0
74 97 98 0
c gate 99 8 24 0
8 -99 0
24 -99 0
-8 -24 99 0
c gate 100 -8 -24 0
-8 -100 0
-24 -100 0
8 24 100 0
c gate 101 -99 -100 0
-99 -101 0
-100 -101 0
99 100 101 0
c gate 102 -98 -101 0
-98 -102 0
-101 -102 0
98 101 102 0
c gate 103 8 -24 0
8 -103 0
-24 -103 0
-8 24 103 0
c gate 104 9 -25 0
9 -104 0
-25 -104 0
-9 25 104 0
c gate 105 -103 -104 0
-103 -105 0
-104 -105 0
103 104 105 0
c gate 106 -102 105 0
-102 -106 0
105 -106 0
102 -105 106 0
c gate 107 -73 -106 0
-73 -107 0
-106 -107 0
73 106 107 0
c gate 108 -10 -26 0
-10 -108 0
-26 -108 0
10 26 108 0
c gate 109 10 26 0
10 -109 0
26 -109 0
-10 -26 109 0
c gate 110 -108 -109 0
-108 -110 0
-109 -110 0
108 109 110 0
c gate 111 -107 -110 0
-107 -111 0
-110 -111 0
107 110 111 0
c gate 112 -72 -111 0
-72 -112 0
-111 -112 0
72 111 112 0
c gate 113 71 -112 0
71 -113 0
-112 -113 0
-71 112 113 0
c gate 114 -11 -27 0
-11 -114 0
-27 -114 0
11 27 114 0
c gate 115 11 27 0
11 -115 0
27 -115 0
-11 -27 115 0
c gate 116 -114 -115 0
-114 -116 0
-115 -116 0
114 115 116 0
c gate 117 71 116 0
71 -117 0
116 -117 0
-71 -116 117 0
c gate 118 -13 -29 0
-13 -118 0
-29 -118 0
13 29 118 0
c gate 119 13 29 0
13 -119 0
29 -119 0
-13 -29 119 0
c gate 120 -118 -119 0
-118 -120 0
-119 -120 0
118 119 120 0
c gate 121 -12 28 0
-12 -121 0
28 -121 0
12 -28 121 0
c gate 122 -120 -121 0
-120 -122 0
-121 -122 0
120 121 122 0
c gate 123 -117 122 0
-117 -123 0
122 -123 0
117 -122 123 0
c gate 124 113 123 0
113 -124 0
123 -124 0
-113 -123 124 0
c gate 125 112 116 0
112 -125 0
116 -125 0
-112 -116 125 0
c gate 126 -112 -116 0
-112 -126 0
-116 -126 0
112 116 126 0
c gate 127 -125 -126 0
-125 -127 0
-126 -127 0
125 126 127 0
c gate 128 10 -26 0
10 -128 0
-26 -128 0
-10 26 128 0
c gate 129 -105 -110 0
-105 -129 0
-110 -129 0
105 110 129 0
c gate 130 -128 -129 0
-128 -130 0
-129 -130 0
128 129 130 0
c gate 131 116 -130 0
116 -131 0
-130 -131 0
-116 130 131 0
c gate 132 -127 -131 0
-127 -132 0
-131 -132 0
127 131 132 0
c gate 133 105 110 0
105 -133 0
110 -133 0
-105 -110 133 0
c gate 134 -129 -133 0
-129 -134 0
-133 -134 0
129 133 134 0
c gate 135 107 110 0
107 -135 0
110 -135 0
-107 -110 135 0
c gate 136 -111 -135 0
-111 -136 0
-135 -136 0
111 135 136 0
c gate 137 134 136 0
134 -137 0
136 -137 0
-134 -136 137 0
c gate 138 -134 -136 0
-134 -138 0
-136 -138 0
134 136 138 0
c gate 139 -73 -104 0
-73 -139 0
-104 -139 0
73 104 139 0
c gate 140 102 139 0
102 -140 0
139 -140 0
-102 -139 140 0
c gate 141 -97 -102 0
-97 -141 0
-102 -141 0
97 102 141 0
c gate 142 35 -56 0
35 -142 0
-56 -142 0
-35 56 142 0
c gate 143 -86 142 0
-86 -143 0
142 -143 0
86 -142 143 0
c gate 144 90 143 0
90 -144 0
143 -144 0
-90 -143 144 0
c gate 145 -92 -144 0
-92 -145 0
-144 -145 0
92 144 145 0
c gate 146 -97 145 0
-97 -146 0
145 -146 0
97 -145 146 0
c gate 147 -142 146 0
-142 -147 0
146 -147 0
142 -146 147 0
c gate 148 -16 -32 0
-16 -148 0
-32 -148 0
16 32 148 0
c gate 149 16 32 0
16 -149 0
32 -149 0
-16 -32 149 0
c gate 150 -148 -149 0
-148 -150 0
-149 -150 0
148 149 150 0
c gate 151 15 31 0
15 -151 0
31 -151 0
-15 -31 151 0
c gate 152 -14 -30 0
-14 -152 0
-30 -152 0
14 30 152 0
c gate 153 14 -30 0
14 -153 0
-30 -153 0
-14 30 153 0
c gate 154 -14 30 0
-14 -154 0
30 -154 0
14 -30 154 0
c gate 155 -153 -154 0
-153 -155 0
-154 -155 0
153 154 155 0
c gate 156 12 28 0
12 -156 0
28 -156 0
-12 -28 156 0
c gate 157 -53 -56 0
-53 -157 0
-56 -157 0
53 56 157 0
c gate 158 90 157 0
90 -158 0
157 -158 0
-90 -157 158 0
c gate 159 -88 -158 0
-88 -159 0
-158 -159 0
88 158 159 0
c gate 160 96 -159 0
96 -160 0
-159 -160 0
-96 159 160 0
c gate 161 -94 -100 0
-94 -161 0
-100 -161 0
94 100 161 0
c gate 162 -160 161 0
-160 -162 0
161 -162 0
160 -161 162 0
c gate 163 9 25 0
9 -163 0
25 -163 0
-9 -25 163 0
c gate 164 -99 -163 0
-99 -164 0
-163 -164 0
99 163 164 0
c gate 165 -162 164 0
-162 -165 0
164 -165 0
162 -164 165 0
c gate 166 -9 -25 0
-9 -166 0
-25 -166 0
9 25 166 0
c gate 167 -108 -166 0
-108 -167 0
-166 -167 0
108 166 167 0
c gate 168 -165 167 0
-165 -168 0
167 -168 0
165 -167 168 0
c gate 169 -109 -115 0
-109 -169 0
-115 -169 0
109 115 169 0
c gate 170 -168 169 0
-168 -170 0
169 -170 0
168 -169 170 0
c gate 171 -12 -28 0
-12 -171 0
-28 -171 0
12 28 171 0
c gate 172 -114 -171 0
-114 -172 0
-171 -172 0
114 171 172 0
c gate 173 -170 172 0
-170 -173 0
172 -173 0
170 -172 173 0
c gate 174 -156 -173 0
-156 -174 0
-173 -174 0
156 173 174 0
c gate 175 -119 174 0
-119 -175 0
174 -175 0
119 -174 175 0
c gate 176 -118 -175 0
-118 -176 0
-175 -176 0
118 175 176 0
c gate 177 -155 -176 0
-155 -177 0
-176 -177 0
155 176 177 0
c gate 178 -152 -177 0
-152 -178 0
-177 -178 0
152 177 178 0
c gate 179 -15 31 0
-15 -179 0
31 -179 0
15 -31 179 0
c gate 180 15 -31 0
15 -180 0
-31 -180 0
-15 31 180 0
c gate 181 -179 -180 0
-179 -181 0
-180 -181 0
179 180 181 0
c gate 182 178 -181 0
178 -182 0
-181 -182 0
-178 181 182 0
c gate 183 -151 -182 0
-151 -183 0
-182 -183 0
151 182 183 0
c gate 184 150 183 0
150 -184 0
183 -184 0
-150 -183 184 0
c gate 185 -150 -183 0
-150 -185 0
-183 -185 0
150 183 185 0
c gate 186 -184 -185 0
-184 -186 0
-185 -186 0
184 185 186 0
c gate 187 -119 -156 0
-119 -187 0
-156 -187 0
119 156 187 0
c gate 188 -155 187 0
-155 -188 0
187 -188 0
155 -187 188 0
c gate 189 -152 -188 0
-152 -189 0
-188 -189 0
152 188 189 0
c gate 190 -151 -189 0
-151 -190 0
-189 -190 0
151 189 190 0
c gate 191 150 190 0
150 -191 0
190 -191 0
-150 -190 191 0
c gate 192 -150 -190 0
-150 -192 0
-190 -192 0
150 190 192 0
c gate 193 -191 -192 0
-191 -193 0
-192 -193 0
191 192 193 0
c gate 194 186 -193 0
186 -194 0
-193 -194 0
-186 193 194 0
c gate 195 -186 193 0
-186 -195 0
193 -195 0
186 -193 195 0
c gate 196 -194 -195 0
-194 -196 0
-195 -196 0
194 195 196 0
c gate 197 150 -196 0
150 -197 0
-196 -197 0
-150 196 197 0
c gate 198 147 -197 0
147 -198 0
-197 -198 0
-147 197 198 0
c gate 199 101 160 0
101 -199 0
160 -199 0
-101 -160 199 0
c gate 200 39 -76 0
39 -200 0
-76 -200 0
-39 76 200 0
c gate 201 -79 200 0
-79 -201 0
200 -201 0
79 -200 201 0
c gate 202 62 68 0
62 -202 0
68 -202 0
-62 -68 202 0
c gate 203 48 -90 0
48 -203 0
-90 -203 0
-48 90 203 0
c gate 204 157 -203 0
157 -204 0
-203 -204 0
-157 203 204 0
c gate 205 202 -204 0
202 -205 0
-204 -205 0
-202 204 205 0
c gate 206 201 205 0
201 -206 0
205 -206 0
-201 -205 206 0
c gate 207 -160 206 0
-160 -207 0
206 -207 0
160 -206 207 0
c gate 208 -199 -207 0
-199 -208 0
-207 -208 0
199 207 208 0
c gate 209 -178 181 0
-178 -209 0
181 -209 0
178 -181 209 0
c gate 210 -182 -209 0
-182 -210 0
-209 -210 0
182 209 210 0
c gate 211 181 189 0
181 -211 0
189 -211 0
-181 -189 211 0
c gate 212 -181 -189 0
-181 -212 0
-189 -212 0
181 189 212 0
c gate 213 -211 -212 0
-211 -213 0
-212 -213 0
211 212 213 0
c gate 214 -210 -213 0
-210 -214 0
-213 -214 0
210 213 214 0
c gate 215 210 213 0
210 -215 0
213 -215 0
-210 -213 215 0
c gate 216 120 156 0
120 -216 0
156 -216 0
-120 -156 216 0
c gate 217 -174 -216 0
-174 -217 0
-216 -217 0
174 216 217 0
c gate 218 -215 -217 0
-215 -218 0
-217 -218 0
215 217 218 0
c gate 219 -214 218 0
-214 -219 0
218 -219 0
214 -218 219 0
c gate 220 196 219 0
196 -220 0
219 -220 0
-196 -219 220 0
c gate 221 208 220 0
208 -221 0
220 -221 0
-208 -220 221 0
c gate 222 110 116 0
110 -222 0
116 -222 0
-110 -116 222 0
c gate 223 -69 -121 0
-69 -223 0
-121 -223 0
69 121 223 0
c gate 224 -139 -223 0
-139 -224 0
-223 -224 0
139 223 224 0
c gate 225 222 224 0
222 -225 0
224 -225 0
-222 -224 225 0
c gate 226 199 -225 0
199 -226 0
-225 -226 0
-199 225 226 0
c gate 227 220 -226 0
220 -227 0
-226 -227 0
-220 226 227 0
c gate 228 155 -187 0
155 -228 0
-187 -228 0
-155 187 228 0
c gate 229 -188 -228 0
-188 -229 0
-228 -229 0
188 228 229 0
c gate 230 155 176 0
155 -230 0
176 -230 0
-155 -176 230 0
c gate 231 -177 -230 0
-177 -231 0
-230 -231 0
177 230 231 0
c gate 232 -229 231 0
-229 -232 0
231 -232 0
229 -231 232 0
c gate 233 -120 -174 0
-120 -233 0
-174 -233 0
120 174 233 0
c gate 234 -232 233 0
-232 -234 0
233 -234 0
232 -233 234 0
c gate 235 229 -231 0
229 -235 0
-231 -235 0
-229 231 235 0
c gate 236 -234 -235 0
-234 -236 0
-235 -236 0
234 235 236 0
c gate 237 -215 236 0
-215 -237 0
236 -237 0
215 -236 237 0
c gate 238 -214 -237 0
-214 -238 0
-237 -238 0
214 237 238 0
c gate 239 -194 238 0
-194 -239 0
238 -239 0
194 -238 239 0
c gate 240 -195 -239 0
-195 -240 0
-239 -240 0
195 239 240 0
c gate 241 -227 240 0
-227 -241 0
240 -241 0
227 -240 241 0
c gate 242 -221 -241 0
-221 -242 0
-241 -242 0
221 241 242 0
c gate 243 198 -242 0
198 -243 0
-242 -243 0
-198 242 243 0
c gate 244 147 -191 0
147 -244 0
-191 -244 0
-147 191 244 0
c gate 245 184 244 0
184 -245 0
244 -245 0
-184 -244 245 0
c gate 246 143 146 0
143 -246 0
146 -246 0
-143 -146 246 0
c gate 247 92 96 0
92 -247 0
96 -247 0
-92 -96 247 0
c gate 248 -246 -247 0
-246 -248 0
-247 -248 0
246 247 248 0
c gate 249 -245 248 0
-245 -249 0
248 -249 0
245 -248 249 0
c gate 250 -198 249 0
-198 -250 0
249 -250 0
198 -249 250 0
c gate 251 -243 -250 0
-243 -251 0
-250 -251 0
243 250 251 0
c gate 252 141 -251 0
141 -252 0
-251 -252 0
-141 251 252 0
c gate 253 -140 -252 0
-140 -253 0
-252 -253 0
140 252 253 0
c gate 254 -138 -253 0
-138 -254 0
-253 -254 0
138 253 254 0
c gate 255 -137 -254 0
-137 -255 0
-254 -255 0
137 254 255 0
c gate 256 -132 -255 0
-132 -256 0
-255 -256 0
132 255 256 0
c gate 257 -112 131 0
-112 -257 0
131 -257 0
112 -131 257 0
c gate 258 -126 -257 0
-126 -258 0
-257 -258 0
126 257 258 0
c gate 259 -256 258 0
-256 -259 0
258 -259 0
256 -258 259 0
c gate 260 -124 -259 0
-124 -260 0
-259 -260 0
124 259 260 0
c gate 261 155 181 0
155 -261 0
181 -261 0
-155 -181 261 0
c gate 262 124 -261 0
124 -262 0
-261 -262 0
-124 261 262 0
c gate 263 13 -29 0
13 -263 0
-29 -263 0
-13 29 263 0
c gate 264 -153 -263 0
-153 -264 0
-263 -264 0
153 263 264 0
c gate 265 113 264 0
113 -265 0
264 -265 0
-113 -264 265 0
c gate 266 181 -265 0
181 -266 0
-265 -266 0
-181 265 266 0
c gate 267 -123 264 0
-123 -267 0
264 -267 0
123 -264 267 0
c gate 268 -154 -179 0
-154 -268 0
-179 -268 0
154 179 268 0
c gate 269 -267 268 0
-267 -269 0
268 -269 0
267 -268 269 0
c gate 270 -266 269 0
-266 -270 0
269 -270 0
266 -269 270 0
c gate 271 150 -180 0
150 -271 0
-180 -271 0
-150 180 271 0
c gate 272 270 271 0
270 -272 0
271 -272 0
-270 -271 272 0
c gate 273 -262 -272 0
-262 -273 0
-272 -273 0
262 272 273 0
c gate 274 -260 273 0
-260 -274 0
273 -274 0
260 -273 274 0
c gate 275 -68 274 0
-68 -275 0
274 -275 0
68 -274 275 0
c gate 276 68 201 0
68 -276 0
201 -276 0
-68 -201 276 0
c gate 277 -274 276 0
-274 -277 0
276 -277 0
274 -276 277 0
c gate 278 -275 -277 0
-275 -278 0
-277 -278 0
275 277 278 0
c gate 279 62 -278 0
62 -279 0
-278 -279 0
-62 278 279 0
c gate 280 -62 278 0
-62 -280 0
278 -280 0
62 -278 280 0
c gate 281 -279 -280 0
-279 -281 0
-280 -281 0
279 280 281 0
c PO
-281 0
